language Essence 1.3
letting nnodes be 90
letting nrings be 67
letting capacity be 50
letting demand be 
{{1, 3},
{1, 4},
{1, 10},
{1, 19},
{1, 20},
{1, 21},
{1, 22},
{1, 24},
{1, 25},
{1, 27},
{1, 28},
{1, 29},
{1, 30},
{1, 31},
{1, 32},
{1, 34},
{1, 37},
{1, 38},
{1, 39},
{1, 40},
{1, 42},
{1, 45},
{1, 47},
{1, 48},
{1, 53},
{1, 54},
{1, 58},
{1, 60},
{1, 61},
{1, 62},
{1, 63},
{1, 67},
{1, 68},
{1, 69},
{1, 70},
{1, 71},
{1, 75},
{1, 83},
{1, 85},
{1, 88},
{2, 5},
{2, 10},
{2, 11},
{2, 12},
{2, 13},
{2, 14},
{2, 16},
{2, 18},
{2, 19},
{2, 20},
{2, 21},
{2, 22},
{2, 25},
{2, 26},
{2, 29},
{2, 30},
{2, 31},
{2, 33},
{2, 34},
{2, 35},
{2, 36},
{2, 37},
{2, 39},
{2, 41},
{2, 43},
{2, 44},
{2, 45},
{2, 47},
{2, 48},
{2, 50},
{2, 51},
{2, 53},
{2, 56},
{2, 58},
{2, 59},
{2, 61},
{2, 67},
{2, 68},
{2, 69},
{2, 71},
{2, 72},
{2, 81},
{2, 82},
{2, 83},
{2, 84},
{2, 85},
{2, 87},
{3, 4},
{3, 5},
{3, 8},
{3, 9},
{3, 10},
{3, 12},
{3, 13},
{3, 16},
{3, 19},
{3, 24},
{3, 26},
{3, 29},
{3, 31},
{3, 32},
{3, 33},
{3, 34},
{3, 35},
{3, 36},
{3, 37},
{3, 38},
{3, 39},
{3, 44},
{3, 46},
{3, 47},
{3, 48},
{3, 49},
{3, 50},
{3, 53},
{3, 55},
{3, 58},
{3, 61},
{3, 63},
{3, 64},
{3, 66},
{3, 70},
{3, 71},
{3, 72},
{3, 73},
{3, 77},
{3, 78},
{3, 79},
{3, 85},
{3, 86},
{3, 87},
{3, 88},
{3, 89},
{4, 5},
{4, 8},
{4, 9},
{4, 11},
{4, 14},
{4, 20},
{4, 26},
{4, 33},
{4, 35},
{4, 39},
{4, 41},
{4, 42},
{4, 43},
{4, 45},
{4, 46},
{4, 48},
{4, 49},
{4, 51},
{4, 52},
{4, 53},
{4, 55},
{4, 59},
{4, 60},
{4, 61},
{4, 62},
{4, 63},
{4, 64},
{4, 65},
{4, 70},
{4, 71},
{4, 75},
{4, 81},
{4, 83},
{4, 85},
{4, 88},
{4, 89},
{5, 6},
{5, 7},
{5, 8},
{5, 13},
{5, 14},
{5, 16},
{5, 17},
{5, 23},
{5, 24},
{5, 25},
{5, 26},
{5, 29},
{5, 30},
{5, 32},
{5, 36},
{5, 41},
{5, 47},
{5, 50},
{5, 59},
{5, 61},
{5, 62},
{5, 63},
{5, 65},
{5, 66},
{5, 69},
{5, 71},
{5, 74},
{5, 76},
{5, 77},
{5, 78},
{5, 81},
{5, 82},
{5, 88},
{5, 90},
{6, 7},
{6, 8},
{6, 9},
{6, 10},
{6, 11},
{6, 15},
{6, 16},
{6, 17},
{6, 18},
{6, 20},
{6, 21},
{6, 23},
{6, 25},
{6, 29},
{6, 30},
{6, 33},
{6, 38},
{6, 40},
{6, 41},
{6, 43},
{6, 46},
{6, 48},
{6, 49},
{6, 52},
{6, 53},
{6, 54},
{6, 59},
{6, 60},
{6, 61},
{6, 62},
{6, 65},
{6, 69},
{6, 70},
{6, 73},
{6, 74},
{6, 75},
{6, 77},
{6, 79},
{6, 81},
{6, 82},
{6, 85},
{6, 87},
{7, 10},
{7, 11},
{7, 12},
{7, 13},
{7, 14},
{7, 15},
{7, 17},
{7, 18},
{7, 19},
{7, 20},
{7, 21},
{7, 26},
{7, 34},
{7, 35},
{7, 36},
{7, 37},
{7, 39},
{7, 41},
{7, 43},
{7, 50},
{7, 52},
{7, 54},
{7, 55},
{7, 56},
{7, 59},
{7, 62},
{7, 64},
{7, 65},
{7, 67},
{7, 71},
{7, 73},
{7, 75},
{7, 77},
{7, 80},
{7, 85},
{7, 87},
{7, 88},
{7, 90},
{8, 9},
{8, 11},
{8, 12},
{8, 13},
{8, 16},
{8, 17},
{8, 18},
{8, 19},
{8, 20},
{8, 21},
{8, 22},
{8, 25},
{8, 27},
{8, 28},
{8, 29},
{8, 30},
{8, 32},
{8, 36},
{8, 38},
{8, 40},
{8, 43},
{8, 44},
{8, 45},
{8, 47},
{8, 48},
{8, 51},
{8, 52},
{8, 56},
{8, 60},
{8, 61},
{8, 64},
{8, 65},
{8, 66},
{8, 69},
{8, 76},
{8, 78},
{8, 79},
{8, 82},
{8, 84},
{8, 85},
{8, 87},
{8, 88},
{8, 90},
{9, 10},
{9, 21},
{9, 26},
{9, 29},
{9, 30},
{9, 32},
{9, 33},
{9, 36},
{9, 39},
{9, 42},
{9, 43},
{9, 44},
{9, 45},
{9, 47},
{9, 50},
{9, 53},
{9, 56},
{9, 57},
{9, 58},
{9, 61},
{9, 62},
{9, 63},
{9, 65},
{9, 66},
{9, 67},
{9, 69},
{9, 70},
{9, 72},
{9, 75},
{9, 76},
{9, 77},
{9, 78},
{9, 79},
{9, 82},
{9, 83},
{9, 88},
{9, 90},
{10, 12},
{10, 13},
{10, 14},
{10, 15},
{10, 17},
{10, 18},
{10, 20},
{10, 21},
{10, 22},
{10, 23},
{10, 24},
{10, 25},
{10, 26},
{10, 29},
{10, 30},
{10, 33},
{10, 34},
{10, 39},
{10, 41},
{10, 44},
{10, 45},
{10, 46},
{10, 48},
{10, 49},
{10, 51},
{10, 54},
{10, 55},
{10, 56},
{10, 58},
{10, 59},
{10, 61},
{10, 62},
{10, 63},
{10, 64},
{10, 66},
{10, 67},
{10, 68},
{10, 69},
{10, 70},
{10, 71},
{10, 73},
{10, 74},
{10, 75},
{10, 77},
{10, 79},
{10, 81},
{10, 82},
{10, 83},
{10, 85},
{10, 88},
{10, 89},
{11, 12},
{11, 15},
{11, 16},
{11, 19},
{11, 26},
{11, 31},
{11, 32},
{11, 33},
{11, 35},
{11, 36},
{11, 39},
{11, 41},
{11, 45},
{11, 47},
{11, 48},
{11, 50},
{11, 51},
{11, 52},
{11, 53},
{11, 59},
{11, 60},
{11, 64},
{11, 65},
{11, 69},
{11, 70},
{11, 71},
{11, 72},
{11, 73},
{11, 74},
{11, 76},
{11, 77},
{11, 79},
{11, 80},
{11, 81},
{11, 84},
{11, 87},
{11, 88},
{11, 90},
{12, 13},
{12, 14},
{12, 16},
{12, 18},
{12, 19},
{12, 20},
{12, 23},
{12, 26},
{12, 27},
{12, 30},
{12, 38},
{12, 43},
{12, 46},
{12, 49},
{12, 50},
{12, 53},
{12, 54},
{12, 59},
{12, 60},
{12, 62},
{12, 67},
{12, 70},
{12, 74},
{12, 76},
{12, 77},
{12, 81},
{12, 82},
{12, 83},
{12, 84},
{12, 85},
{12, 86},
{12, 88},
{13, 14},
{13, 16},
{13, 19},
{13, 21},
{13, 30},
{13, 32},
{13, 33},
{13, 35},
{13, 37},
{13, 38},
{13, 40},
{13, 42},
{13, 45},
{13, 46},
{13, 47},
{13, 50},
{13, 51},
{13, 52},
{13, 54},
{13, 55},
{13, 60},
{13, 61},
{13, 62},
{13, 63},
{13, 65},
{13, 68},
{13, 70},
{13, 71},
{13, 72},
{13, 73},
{13, 74},
{13, 76},
{13, 79},
{13, 81},
{13, 82},
{13, 84},
{13, 85},
{13, 87},
{13, 88},
{13, 89},
{13, 90},
{14, 15},
{14, 16},
{14, 17},
{14, 18},
{14, 20},
{14, 22},
{14, 23},
{14, 24},
{14, 25},
{14, 26},
{14, 27},
{14, 30},
{14, 31},
{14, 32},
{14, 35},
{14, 37},
{14, 39},
{14, 41},
{14, 46},
{14, 47},
{14, 49},
{14, 50},
{14, 51},
{14, 52},
{14, 54},
{14, 56},
{14, 60},
{14, 61},
{14, 63},
{14, 64},
{14, 65},
{14, 66},
{14, 68},
{14, 69},
{14, 70},
{14, 71},
{14, 72},
{14, 73},
{14, 74},
{14, 77},
{14, 78},
{14, 79},
{14, 81},
{14, 82},
{14, 87},
{15, 16},
{15, 19},
{15, 21},
{15, 22},
{15, 23},
{15, 24},
{15, 25},
{15, 28},
{15, 29},
{15, 30},
{15, 32},
{15, 34},
{15, 35},
{15, 37},
{15, 38},
{15, 40},
{15, 41},
{15, 44},
{15, 51},
{15, 52},
{15, 53},
{15, 54},
{15, 56},
{15, 59},
{15, 60},
{15, 61},
{15, 64},
{15, 65},
{15, 66},
{15, 67},
{15, 68},
{15, 73},
{15, 74},
{15, 77},
{15, 78},
{15, 80},
{15, 83},
{15, 84},
{15, 85},
{15, 88},
{16, 19},
{16, 20},
{16, 21},
{16, 23},
{16, 24},
{16, 25},
{16, 26},
{16, 28},
{16, 31},
{16, 32},
{16, 37},
{16, 38},
{16, 40},
{16, 44},
{16, 46},
{16, 52},
{16, 55},
{16, 56},
{16, 57},
{16, 58},
{16, 59},
{16, 60},
{16, 61},
{16, 66},
{16, 68},
{16, 71},
{16, 73},
{16, 74},
{16, 75},
{16, 78},
{16, 79},
{16, 80},
{16, 84},
{16, 87},
{16, 88},
{17, 18},
{17, 19},
{17, 20},
{17, 21},
{17, 25},
{17, 29},
{17, 30},
{17, 33},
{17, 34},
{17, 39},
{17, 40},
{17, 47},
{17, 48},
{17, 49},
{17, 50},
{17, 51},
{17, 52},
{17, 53},
{17, 57},
{17, 58},
{17, 60},
{17, 62},
{17, 67},
{17, 68},
{17, 72},
{17, 74},
{17, 79},
{17, 80},
{17, 81},
{17, 82},
{17, 83},
{17, 87},
{17, 88},
{17, 89},
{18, 22},
{18, 23},
{18, 25},
{18, 28},
{18, 29},
{18, 31},
{18, 32},
{18, 33},
{18, 34},
{18, 40},
{18, 42},
{18, 44},
{18, 45},
{18, 46},
{18, 47},
{18, 48},
{18, 51},
{18, 53},
{18, 54},
{18, 56},
{18, 60},
{18, 62},
{18, 64},
{18, 66},
{18, 67},
{18, 70},
{18, 71},
{18, 72},
{18, 73},
{18, 75},
{18, 76},
{18, 77},
{18, 78},
{18, 79},
{18, 83},
{18, 85},
{18, 86},
{18, 87},
{18, 88},
{19, 22},
{19, 23},
{19, 24},
{19, 26},
{19, 27},
{19, 29},
{19, 31},
{19, 32},
{19, 34},
{19, 39},
{19, 40},
{19, 41},
{19, 43},
{19, 45},
{19, 46},
{19, 47},
{19, 49},
{19, 50},
{19, 51},
{19, 53},
{19, 54},
{19, 58},
{19, 63},
{19, 67},
{19, 69},
{19, 70},
{19, 71},
{19, 74},
{19, 76},
{19, 77},
{19, 79},
{19, 80},
{19, 81},
{19, 82},
{19, 83},
{19, 84},
{19, 85},
{19, 86},
{19, 87},
{19, 88},
{19, 90},
{20, 22},
{20, 25},
{20, 26},
{20, 28},
{20, 29},
{20, 34},
{20, 37},
{20, 40},
{20, 43},
{20, 44},
{20, 45},
{20, 47},
{20, 48},
{20, 49},
{20, 52},
{20, 53},
{20, 58},
{20, 59},
{20, 60},
{20, 62},
{20, 64},
{20, 68},
{20, 69},
{20, 70},
{20, 71},
{20, 72},
{20, 73},
{20, 74},
{20, 75},
{20, 76},
{20, 77},
{20, 79},
{20, 80},
{20, 81},
{20, 82},
{20, 84},
{20, 87},
{20, 88},
{21, 22},
{21, 23},
{21, 26},
{21, 30},
{21, 31},
{21, 32},
{21, 33},
{21, 36},
{21, 37},
{21, 39},
{21, 42},
{21, 43},
{21, 46},
{21, 48},
{21, 50},
{21, 51},
{21, 53},
{21, 56},
{21, 60},
{21, 61},
{21, 62},
{21, 63},
{21, 64},
{21, 74},
{21, 75},
{21, 78},
{21, 79},
{21, 80},
{21, 81},
{21, 82},
{21, 83},
{21, 87},
{21, 89},
{21, 90},
{22, 23},
{22, 25},
{22, 31},
{22, 32},
{22, 33},
{22, 37},
{22, 41},
{22, 43},
{22, 44},
{22, 45},
{22, 48},
{22, 50},
{22, 51},
{22, 57},
{22, 59},
{22, 63},
{22, 64},
{22, 65},
{22, 68},
{22, 70},
{22, 71},
{22, 72},
{22, 76},
{22, 78},
{22, 79},
{22, 87},
{22, 88},
{22, 89},
{22, 90},
{23, 24},
{23, 25},
{23, 27},
{23, 29},
{23, 30},
{23, 31},
{23, 32},
{23, 33},
{23, 34},
{23, 37},
{23, 39},
{23, 40},
{23, 44},
{23, 46},
{23, 47},
{23, 52},
{23, 54},
{23, 55},
{23, 57},
{23, 61},
{23, 62},
{23, 63},
{23, 65},
{23, 69},
{23, 72},
{23, 74},
{23, 76},
{23, 78},
{23, 81},
{23, 82},
{23, 83},
{23, 84},
{23, 85},
{23, 86},
{24, 26},
{24, 29},
{24, 31},
{24, 32},
{24, 33},
{24, 35},
{24, 38},
{24, 40},
{24, 41},
{24, 42},
{24, 43},
{24, 44},
{24, 46},
{24, 47},
{24, 51},
{24, 52},
{24, 53},
{24, 55},
{24, 58},
{24, 59},
{24, 63},
{24, 65},
{24, 67},
{24, 68},
{24, 71},
{24, 73},
{24, 74},
{24, 76},
{24, 78},
{24, 82},
{24, 83},
{24, 84},
{24, 87},
{24, 89},
{24, 90},
{25, 26},
{25, 27},
{25, 29},
{25, 30},
{25, 32},
{25, 34},
{25, 36},
{25, 37},
{25, 40},
{25, 41},
{25, 43},
{25, 45},
{25, 46},
{25, 50},
{25, 51},
{25, 53},
{25, 55},
{25, 59},
{25, 61},
{25, 62},
{25, 64},
{25, 65},
{25, 66},
{25, 67},
{25, 68},
{25, 69},
{25, 70},
{25, 72},
{25, 75},
{25, 77},
{25, 78},
{25, 80},
{25, 81},
{25, 82},
{25, 85},
{25, 86},
{25, 87},
{25, 88},
{25, 89},
{25, 90},
{26, 28},
{26, 29},
{26, 37},
{26, 38},
{26, 42},
{26, 43},
{26, 47},
{26, 50},
{26, 51},
{26, 59},
{26, 62},
{26, 63},
{26, 65},
{26, 66},
{26, 68},
{26, 71},
{26, 74},
{26, 77},
{26, 79},
{26, 80},
{26, 85},
{26, 87},
{27, 32},
{27, 37},
{27, 40},
{27, 41},
{27, 42},
{27, 43},
{27, 44},
{27, 47},
{27, 48},
{27, 52},
{27, 53},
{27, 54},
{27, 55},
{27, 56},
{27, 59},
{27, 60},
{27, 63},
{27, 64},
{27, 65},
{27, 67},
{27, 68},
{27, 73},
{27, 74},
{27, 75},
{27, 77},
{27, 81},
{27, 82},
{27, 83},
{27, 84},
{27, 87},
{27, 88},
{27, 90},
{28, 29},
{28, 34},
{28, 36},
{28, 37},
{28, 38},
{28, 40},
{28, 41},
{28, 42},
{28, 44},
{28, 46},
{28, 50},
{28, 52},
{28, 53},
{28, 54},
{28, 55},
{28, 57},
{28, 59},
{28, 60},
{28, 62},
{28, 63},
{28, 65},
{28, 66},
{28, 71},
{28, 72},
{28, 73},
{28, 74},
{28, 79},
{28, 80},
{28, 81},
{28, 84},
{28, 85},
{28, 90},
{29, 30},
{29, 33},
{29, 34},
{29, 37},
{29, 39},
{29, 40},
{29, 42},
{29, 44},
{29, 47},
{29, 48},
{29, 49},
{29, 51},
{29, 52},
{29, 54},
{29, 55},
{29, 56},
{29, 57},
{29, 59},
{29, 61},
{29, 62},
{29, 69},
{29, 71},
{29, 74},
{29, 75},
{29, 77},
{29, 79},
{29, 82},
{29, 83},
{29, 84},
{29, 85},
{29, 89},
{30, 32},
{30, 33},
{30, 34},
{30, 35},
{30, 36},
{30, 40},
{30, 43},
{30, 45},
{30, 47},
{30, 48},
{30, 49},
{30, 52},
{30, 59},
{30, 60},
{30, 61},
{30, 62},
{30, 63},
{30, 64},
{30, 67},
{30, 68},
{30, 69},
{30, 71},
{30, 74},
{30, 75},
{30, 76},
{30, 77},
{30, 78},
{30, 80},
{30, 81},
{30, 82},
{30, 83},
{30, 86},
{30, 90},
{31, 34},
{31, 35},
{31, 39},
{31, 40},
{31, 43},
{31, 45},
{31, 46},
{31, 47},
{31, 50},
{31, 51},
{31, 54},
{31, 55},
{31, 56},
{31, 58},
{31, 61},
{31, 62},
{31, 63},
{31, 65},
{31, 66},
{31, 68},
{31, 71},
{31, 72},
{31, 75},
{31, 77},
{31, 78},
{31, 79},
{31, 80},
{31, 81},
{31, 82},
{31, 84},
{31, 85},
{31, 88},
{31, 89},
{32, 36},
{32, 38},
{32, 42},
{32, 46},
{32, 47},
{32, 49},
{32, 52},
{32, 58},
{32, 60},
{32, 62},
{32, 63},
{32, 64},
{32, 65},
{32, 69},
{32, 71},
{32, 72},
{32, 73},
{32, 75},
{32, 78},
{32, 79},
{32, 80},
{32, 81},
{32, 82},
{32, 85},
{32, 88},
{33, 34},
{33, 36},
{33, 39},
{33, 41},
{33, 43},
{33, 44},
{33, 45},
{33, 46},
{33, 49},
{33, 52},
{33, 53},
{33, 56},
{33, 57},
{33, 58},
{33, 59},
{33, 62},
{33, 65},
{33, 69},
{33, 71},
{33, 74},
{33, 76},
{33, 78},
{33, 83},
{33, 84},
{33, 85},
{33, 87},
{33, 88},
{33, 89},
{34, 35},
{34, 36},
{34, 37},
{34, 38},
{34, 40},
{34, 41},
{34, 42},
{34, 44},
{34, 53},
{34, 58},
{34, 59},
{34, 60},
{34, 64},
{34, 66},
{34, 67},
{34, 68},
{34, 69},
{34, 70},
{34, 71},
{34, 73},
{34, 75},
{34, 79},
{34, 80},
{34, 81},
{34, 82},
{34, 84},
{34, 86},
{34, 89},
{35, 38},
{35, 40},
{35, 44},
{35, 46},
{35, 47},
{35, 48},
{35, 50},
{35, 52},
{35, 53},
{35, 54},
{35, 58},
{35, 60},
{35, 62},
{35, 66},
{35, 69},
{35, 72},
{35, 73},
{35, 74},
{35, 75},
{35, 77},
{35, 78},
{35, 79},
{35, 81},
{35, 84},
{35, 88},
{35, 89},
{36, 37},
{36, 39},
{36, 43},
{36, 44},
{36, 45},
{36, 47},
{36, 48},
{36, 49},
{36, 52},
{36, 55},
{36, 56},
{36, 57},
{36, 59},
{36, 60},
{36, 63},
{36, 64},
{36, 67},
{36, 68},
{36, 69},
{36, 71},
{36, 72},
{36, 73},
{36, 79},
{36, 80},
{36, 81},
{36, 82},
{36, 86},
{36, 87},
{37, 41},
{37, 43},
{37, 47},
{37, 49},
{37, 51},
{37, 53},
{37, 56},
{37, 57},
{37, 60},
{37, 61},
{37, 62},
{37, 63},
{37, 66},
{37, 72},
{37, 73},
{37, 77},
{37, 79},
{37, 80},
{37, 82},
{37, 83},
{37, 86},
{37, 87},
{37, 89},
{38, 39},
{38, 41},
{38, 42},
{38, 43},
{38, 44},
{38, 46},
{38, 47},
{38, 48},
{38, 49},
{38, 50},
{38, 51},
{38, 53},
{38, 56},
{38, 57},
{38, 59},
{38, 61},
{38, 62},
{38, 64},
{38, 66},
{38, 67},
{38, 69},
{38, 70},
{38, 74},
{38, 75},
{38, 78},
{38, 79},
{38, 81},
{38, 82},
{38, 83},
{38, 84},
{38, 87},
{38, 88},
{38, 89},
{38, 90},
{39, 41},
{39, 42},
{39, 43},
{39, 46},
{39, 48},
{39, 52},
{39, 53},
{39, 54},
{39, 55},
{39, 59},
{39, 61},
{39, 63},
{39, 64},
{39, 72},
{39, 78},
{39, 79},
{39, 80},
{39, 81},
{39, 82},
{39, 83},
{39, 84},
{39, 85},
{39, 86},
{39, 87},
{40, 43},
{40, 45},
{40, 46},
{40, 47},
{40, 48},
{40, 54},
{40, 55},
{40, 56},
{40, 58},
{40, 61},
{40, 63},
{40, 64},
{40, 67},
{40, 71},
{40, 72},
{40, 73},
{40, 74},
{40, 76},
{40, 83},
{40, 86},
{40, 87},
{40, 90},
{41, 44},
{41, 46},
{41, 47},
{41, 48},
{41, 49},
{41, 51},
{41, 52},
{41, 53},
{41, 55},
{41, 56},
{41, 58},
{41, 64},
{41, 65},
{41, 66},
{41, 70},
{41, 71},
{41, 72},
{41, 73},
{41, 74},
{41, 77},
{41, 80},
{41, 81},
{41, 82},
{41, 83},
{41, 84},
{41, 85},
{41, 86},
{42, 43},
{42, 46},
{42, 47},
{42, 48},
{42, 51},
{42, 54},
{42, 56},
{42, 57},
{42, 60},
{42, 63},
{42, 64},
{42, 65},
{42, 69},
{42, 75},
{42, 77},
{42, 79},
{42, 80},
{42, 81},
{42, 82},
{42, 83},
{42, 85},
{42, 86},
{42, 89},
{42, 90},
{43, 45},
{43, 50},
{43, 51},
{43, 53},
{43, 54},
{43, 55},
{43, 56},
{43, 58},
{43, 60},
{43, 62},
{43, 63},
{43, 64},
{43, 66},
{43, 69},
{43, 71},
{43, 74},
{43, 77},
{43, 82},
{43, 84},
{43, 85},
{43, 88},
{43, 89},
{43, 90},
{44, 45},
{44, 48},
{44, 49},
{44, 52},
{44, 54},
{44, 55},
{44, 61},
{44, 63},
{44, 64},
{44, 66},
{44, 68},
{44, 70},
{44, 73},
{44, 74},
{44, 75},
{44, 76},
{44, 79},
{44, 82},
{44, 83},
{44, 86},
{44, 88},
{45, 47},
{45, 51},
{45, 52},
{45, 54},
{45, 57},
{45, 60},
{45, 65},
{45, 66},
{45, 69},
{45, 72},
{45, 74},
{45, 75},
{45, 77},
{45, 78},
{45, 80},
{45, 81},
{45, 82},
{45, 84},
{45, 86},
{45, 87},
{45, 90},
{46, 48},
{46, 49},
{46, 51},
{46, 52},
{46, 53},
{46, 55},
{46, 56},
{46, 57},
{46, 66},
{46, 67},
{46, 68},
{46, 69},
{46, 70},
{46, 71},
{46, 73},
{46, 74},
{46, 76},
{46, 77},
{46, 78},
{46, 81},
{46, 82},
{46, 87},
{46, 88},
{46, 89},
{46, 90},
{47, 48},
{47, 49},
{47, 55},
{47, 56},
{47, 57},
{47, 58},
{47, 60},
{47, 64},
{47, 68},
{47, 69},
{47, 70},
{47, 71},
{47, 72},
{47, 74},
{47, 75},
{47, 76},
{47, 77},
{47, 79},
{47, 83},
{47, 85},
{47, 87},
{47, 88},
{47, 89},
{48, 49},
{48, 51},
{48, 56},
{48, 62},
{48, 63},
{48, 64},
{48, 65},
{48, 66},
{48, 68},
{48, 69},
{48, 72},
{48, 78},
{48, 80},
{48, 83},
{48, 86},
{48, 90},
{49, 50},
{49, 52},
{49, 55},
{49, 56},
{49, 57},
{49, 58},
{49, 59},
{49, 60},
{49, 61},
{49, 62},
{49, 64},
{49, 65},
{49, 67},
{49, 69},
{49, 72},
{49, 74},
{49, 75},
{49, 76},
{49, 79},
{49, 81},
{49, 83},
{49, 84},
{49, 85},
{49, 86},
{49, 87},
{50, 51},
{50, 54},
{50, 56},
{50, 58},
{50, 60},
{50, 61},
{50, 63},
{50, 64},
{50, 69},
{50, 71},
{50, 73},
{50, 75},
{50, 77},
{50, 78},
{50, 79},
{50, 81},
{50, 82},
{50, 83},
{50, 84},
{50, 87},
{50, 88},
{50, 89},
{51, 53},
{51, 54},
{51, 55},
{51, 56},
{51, 61},
{51, 62},
{51, 63},
{51, 66},
{51, 68},
{51, 72},
{51, 79},
{51, 80},
{51, 81},
{51, 82},
{51, 86},
{51, 89},
{52, 53},
{52, 54},
{52, 56},
{52, 59},
{52, 60},
{52, 61},
{52, 64},
{52, 65},
{52, 68},
{52, 69},
{52, 70},
{52, 71},
{52, 72},
{52, 74},
{52, 76},
{52, 77},
{52, 80},
{52, 81},
{52, 82},
{52, 85},
{52, 87},
{52, 90},
{53, 55},
{53, 56},
{53, 58},
{53, 64},
{53, 65},
{53, 66},
{53, 70},
{53, 74},
{53, 75},
{53, 77},
{53, 80},
{53, 82},
{53, 83},
{53, 84},
{53, 87},
{53, 88},
{53, 89},
{54, 57},
{54, 59},
{54, 62},
{54, 65},
{54, 67},
{54, 78},
{54, 81},
{54, 82},
{54, 84},
{54, 85},
{54, 86},
{54, 88},
{55, 56},
{55, 58},
{55, 60},
{55, 61},
{55, 62},
{55, 63},
{55, 64},
{55, 65},
{55, 69},
{55, 70},
{55, 71},
{55, 73},
{55, 77},
{55, 78},
{55, 79},
{55, 80},
{55, 81},
{55, 84},
{55, 85},
{55, 86},
{55, 87},
{55, 88},
{56, 60},
{56, 63},
{56, 64},
{56, 67},
{56, 68},
{56, 69},
{56, 70},
{56, 71},
{56, 72},
{56, 73},
{56, 74},
{56, 78},
{56, 79},
{56, 80},
{56, 81},
{56, 82},
{56, 84},
{56, 87},
{56, 89},
{57, 59},
{57, 60},
{57, 63},
{57, 64},
{57, 67},
{57, 68},
{57, 69},
{57, 70},
{57, 72},
{57, 74},
{57, 77},
{57, 81},
{57, 82},
{57, 88},
{57, 90},
{58, 59},
{58, 60},
{58, 63},
{58, 66},
{58, 67},
{58, 68},
{58, 70},
{58, 72},
{58, 74},
{58, 76},
{58, 82},
{58, 84},
{58, 88},
{58, 89},
{58, 90},
{59, 62},
{59, 63},
{59, 65},
{59, 66},
{59, 70},
{59, 72},
{59, 75},
{59, 76},
{59, 78},
{59, 79},
{59, 80},
{59, 81},
{59, 88},
{59, 90},
{60, 61},
{60, 65},
{60, 66},
{60, 67},
{60, 68},
{60, 72},
{60, 73},
{60, 74},
{60, 75},
{60, 76},
{60, 78},
{60, 79},
{60, 82},
{60, 83},
{60, 84},
{60, 87},
{60, 88},
{60, 89},
{61, 62},
{61, 67},
{61, 68},
{61, 70},
{61, 72},
{61, 76},
{61, 77},
{61, 79},
{61, 80},
{61, 82},
{61, 83},
{61, 85},
{61, 86},
{61, 88},
{61, 89},
{61, 90},
{62, 63},
{62, 69},
{62, 75},
{62, 76},
{62, 78},
{62, 81},
{62, 82},
{62, 83},
{62, 84},
{62, 86},
{62, 87},
{62, 89},
{63, 64},
{63, 66},
{63, 67},
{63, 68},
{63, 69},
{63, 70},
{63, 71},
{63, 76},
{63, 77},
{63, 79},
{63, 80},
{63, 81},
{63, 82},
{63, 83},
{63, 85},
{63, 86},
{63, 88},
{63, 89},
{64, 66},
{64, 67},
{64, 68},
{64, 71},
{64, 73},
{64, 75},
{64, 77},
{64, 78},
{64, 79},
{64, 81},
{64, 82},
{64, 83},
{64, 85},
{64, 87},
{64, 88},
{64, 89},
{65, 66},
{65, 67},
{65, 69},
{65, 70},
{65, 75},
{65, 77},
{65, 78},
{65, 79},
{65, 80},
{65, 81},
{65, 82},
{65, 85},
{65, 86},
{65, 88},
{65, 89},
{65, 90},
{66, 67},
{66, 68},
{66, 69},
{66, 70},
{66, 72},
{66, 73},
{66, 77},
{66, 79},
{66, 81},
{66, 83},
{66, 84},
{66, 86},
{66, 88},
{67, 69},
{67, 70},
{67, 71},
{67, 73},
{67, 78},
{67, 81},
{67, 82},
{67, 88},
{68, 69},
{68, 72},
{68, 73},
{68, 74},
{68, 75},
{68, 78},
{68, 80},
{68, 81},
{68, 86},
{68, 87},
{69, 70},
{69, 71},
{69, 73},
{69, 75},
{69, 79},
{69, 80},
{69, 82},
{69, 83},
{69, 84},
{69, 86},
{69, 87},
{69, 88},
{69, 90},
{70, 73},
{70, 75},
{70, 81},
{70, 84},
{70, 85},
{70, 87},
{70, 88},
{70, 90},
{71, 72},
{71, 74},
{71, 76},
{71, 77},
{71, 79},
{71, 83},
{71, 84},
{71, 87},
{72, 74},
{72, 76},
{72, 77},
{72, 80},
{72, 83},
{72, 84},
{72, 86},
{72, 89},
{72, 90},
{73, 74},
{73, 76},
{73, 78},
{73, 79},
{73, 80},
{73, 83},
{73, 84},
{73, 85},
{73, 87},
{73, 88},
{73, 90},
{74, 76},
{74, 78},
{74, 81},
{74, 83},
{74, 85},
{74, 86},
{74, 88},
{75, 78},
{75, 80},
{75, 81},
{75, 82},
{75, 83},
{75, 85},
{75, 87},
{75, 88},
{75, 89},
{75, 90},
{76, 77},
{76, 78},
{76, 80},
{76, 81},
{76, 85},
{76, 86},
{76, 88},
{76, 90},
{77, 79},
{77, 88},
{78, 80},
{78, 82},
{78, 83},
{78, 84},
{78, 89},
{78, 90},
{79, 80},
{79, 82},
{79, 83},
{79, 84},
{79, 85},
{79, 86},
{79, 88},
{80, 81},
{80, 82},
{80, 90},
{81, 82},
{81, 85},
{81, 87},
{81, 88},
{81, 89},
{81, 90},
{82, 83},
{82, 86},
{82, 87},
{82, 88},
{82, 89},
{83, 87},
{83, 90},
{84, 85},
{84, 90},
{85, 86},
{85, 87},
{85, 88},
{85, 89},
{86, 87},
{89, 90}}
